Traveling Salesman Problem/TSP_generados/Aleatorio1620390873_6.tsp
NAME: Aleatorio1620390873_6.tsp
COMMENT: Randomly generated scenario
TYPE: TSP
DIMENSION: 6
EDGE_WEIGHT_TYPE: ATT
NODE_COORD_SECTION
1 42.95 0.07
2 48.62 17.67
3 30.15 21.0
4 12.63 43.35
5 4.61 33.02
6 29.34 49.11
