Traveling Salesman Problem/TSP_generados/Aleatorio1620390873_6.opt.tour
NAME: Aleatorio1620390873_6.opt.tour
COMMENT: Optimal solution for Aleatorio1620390873_6 (138.8851660228792)
TYPE: TOUR
DIMENSION: 6
TOUR_SECTION
1 3 5 4 6 2
-1
EOF
